32	0

0	1	2
5	1	3
7	1	4
9	1	5
2	1	6
8	1	7
2	1	8
7	1	9
7	2	10	11
5	1	13
2	1	12
8	1	13
10	1	14
2	1	15
5	1	16
5	2	17	18
4	2	19	20
2	2	19	20
10	1	21
6	1	21
3	1	22
4	1	23
1	1	24
6	1	25
7	1	26
2	1	27
6	1	28
6	1	29
8	2	30	31
3	1	32
4	1	32
0	0
